%block LATTICE_CART
  8.1231000   0.0000000   0.0000000
  0.0000000   8.1231000   0.0000000
  0.0000000   0.0000000  12.6889000
%endblock LATTICE_CART

%block POSITIONS_ABS
  H  4.557868760  0.412447543  1.159129224
  H  7.626781228  0.412447543  1.159129224
  H  4.557868760  3.649102445  1.159129224
  H  7.626781228  3.649102445  1.159129224
  H  4.822398197  5.315575964  3.145602227
  H  7.362251791  5.315575964  3.145602227
  H  4.822398197  6.869074016  3.145602227
  H  7.362251791  6.869074016  3.145602227
  H  1.254025972  0.760848197  3.198847755
  H  2.807524024  0.760848197  3.198847755
  H  1.254025972  3.300701791  3.198847755
  H  2.807524024  3.300701791  3.198847755
  H  4.473997543  0.496318760  5.185320758
  H  7.710652445  0.496318760  5.185320758
  H  4.473997543  3.565231228  5.185320758
  H  7.710652445  3.565231228  5.185320758
  H  0.412447547  4.557868756  7.503579218
  H  3.649102449  4.557868756  7.503579218
  H  0.412447547  7.626781224  7.503579218
  H  3.649102449  7.626781224  7.503579218
  H  5.315575968  4.822398193  9.490052220
  H  6.869074020  4.822398193  9.490052220
  H  5.315575968  7.362251787  9.490052220
  H  6.869074020  7.362251787  9.490052220
  H  0.760848201  1.254025968  9.543297749
  H  3.300701795  1.254025968  9.543297749
  H  0.760848201  2.807524020  9.543297749
  H  3.300701795  2.807524020  9.543297749
  H  0.496318764  4.473997539  11.529770751
  H  3.565231232  4.473997539  11.529770751
  H  0.496318764  7.710652441  11.529770751
  H  3.565231232  7.710652441  11.529770751
  O  0.322974458  0.194142088  0.628988769
  O  3.738575538  0.194142088  0.628988769
  O  0.322974458  3.867407900  0.628988769
  O  3.738575538  3.867407900  0.628988769
  O  6.092324994  0.626291006  1.765152873
  O  6.092324994  3.435258982  1.765152873
  O  4.251630538  6.092324990  2.983921715
  O  7.933019450  6.092324990  2.983921715
  O  6.092324994  0.041427808  3.145070745
  O  6.092324994  4.020122180  3.145070745
  O  4.102977808  2.030774994  3.199379237
  O  8.081672180  2.030774994  3.199379237
  O  2.030774998  0.190080538  3.360528266
  O  2.030774998  3.871469450  3.360528266
  O  4.687841006  2.030774994  4.579297109
  O  7.496808982  2.030774994  4.579297109
  O  4.255692088  4.384524450  5.715461213
  O  7.928957900  4.384524450  5.715461213
  O  4.255692088  7.800125530  5.715461213
  O  7.928957900  7.800125530  5.715461213
  O  0.194142092  0.322974454  6.973438763
  O  3.867407904  0.322974454  6.973438763
  O  0.194142092  3.738575534  6.973438763
  O  3.867407904  3.738575534  6.973438763
  O  0.626291010  6.092324990  8.109602866
  O  3.435258986  6.092324990  8.109602866
  O  6.092324994  4.251630534  9.328371709
  O  6.092324994  7.933019446  9.328371709
  O  0.041427812  6.092324990  9.489520739
  O  4.020122184  6.092324990  9.489520739
  O  2.030774998  4.102977804  9.543829231
  O  2.030774998  8.081672176  9.543829231
  O  0.190080542  2.030774994  9.704978260
  O  3.871469454  2.030774994  9.704978260
  O  2.030774998  4.687841002  10.923747103
  O  2.030774998  7.496808978  10.923747103
  O  4.384524454  4.255692084  12.059911207
  O  7.800125534  4.255692084  12.059911207
  O  4.384524454  7.928957896  12.059911207
  O  7.800125534  7.928957896  12.059911207
  K  6.092324994  6.092324990  0.554504926
  K  2.030774998  6.092324990  1.415193011
  K  2.030774998  6.092324990  4.929256970
  K  2.030774998  2.030774994  5.789945056
  K  6.092324994  6.092324990  6.898954920
  K  6.092324994  2.030774994  7.759643005
  K  6.092324994  2.030774994  11.273706964
  K  2.030774998  2.030774994  12.134395049
 Ti  6.092324994  2.030774994  3.172224991
 Ti  2.030774998  6.092324990  9.516674985
%endblock POSITIONS_ABS

KPOINTS_MP_SPACING 0.05 1/ang

symmetry_generate
snap_to_symmetry

%BLOCK SPECIES_POT
NCP
%ENDBLOCK SPECIES_POT
