%block LATTICE_CART
 22.2093207     0.0739327     0.4563531
  0.0212263     6.5652401    -0.0077055
-10.5815366    -0.0495386    11.4757337
%endblock LATTICE_CART

%block POSITIONS_FRAC
H                 0.204012   0.610084   0.220558
H                 0.251082   0.483315   0.331363
H                 0.801861   0.597059   0.289385
H                 0.750276   0.454154   0.183672
H                 0.705874   0.112735   0.221324
H                 0.299859   0.099339   0.290153
H                 0.800887   0.403208   0.788319
H                 0.749164   0.545328   0.682659
H                 0.200213   0.406335   0.711904
H                0.245743   0.556050   0.815744
H                0.298629   0.903013   0.783932
H                0.704550   0.888539   0.718758
H                0.927987  -0.011454   0.074686
H                0.963696   0.769810   0.089079
H                0.873254   0.920394   0.150449
H                0.893535   0.704175   0.206206
H                0.934937   0.001816   0.580120
H                0.970875   0.217896   0.593765
H                0.893686   0.296181   0.706571
H                0.874188   0.080128   0.650700
H                0.628380   0.418668   0.352694
H                0.612306   0.199604   0.302301
H                0.930886   0.542431   0.395083
H                0.942675   0.632128   0.498162
H                0.714041   0.255667   0.032449
H                0.806886   0.301102   0.113689
H                0.430306   0.488116   0.076836
H                0.465394   0.268167   0.090782
H                0.369655   0.419222   0.145128
H                0.388840   0.202479   0.198783
H                0.529231   0.277216   0.406492
H                0.563013   0.494100   0.416157
H                0.564559   0.507417   0.918884
H                0.529413   0.725340   0.906610
H                0.612057   0.800464   0.802294
H                0.628981   0.581536   0.854096
H                0.129360   0.919969   0.354718
H                0.111563   0.700516   0.302299
H                0.074250   0.524316   0.108080
H                0.058677   0.619167   0.002826
H                0.182028   0.299115   0.363977
H                0.210407   0.214270   0.298527
H                0.065613   0.998984   0.421273
H                0.030108   0.782302   0.407668
H                0.129528   0.080027   0.854017
H                0.110498   0.297402   0.800287
H                0.030530   0.217699  -0.090247
H                0.064967   0.999993   0.919317
H                0.430104   0.955983   0.894694
H                0.444164   0.869279   0.999228
H                0.393091   0.798210   0.705126
H                0.372825   0.581697   0.649197
H                0.428222   0.515334   0.575451
H                0.463644   0.733878   0.590131
H                0.430360   0.042369   0.395098
H                0.443644   0.131855   0.499214
H                0.573598   0.024160   0.105515
H                0.557645   0.117175  -0.000199
H                0.712485   0.741385   0.529132
H                0.805700   0.699991   0.611329
H                0.930912   0.458374   0.895717
H                0.943498   0.368411   0.998645
H                0.682795   0.204864   0.863831
H                0.711002   0.287902   0.798443
H                0.751089   1.017372   0.829402
H                0.573581   0.976371   0.604866
H                0.557984   0.882051   0.499186
H                0.680813   0.793120   0.359508
H                0.714026   0.707511   0.300817
H                0.751188  -0.018213   0.330408
H                0.195216   0.698701   0.889448
H                0.288622   0.744270   0.967446
H                0.070472   0.458557   0.605312
H                0.057054   0.372229   0.500481
H                0.254304   1.054307   0.681667
H                0.214097   0.248058   0.530147
H                0.307247   0.202039   0.609238
H                0.303966   0.805803   0.115888
H                0.211622   0.754015   0.037192
H                0.248126  -0.045976   0.185856
O                 0.483362   0.075266   0.315531
O                 0.378102   0.834350   0.110910
O                 0.436811   0.616183   0.537839
O                 0.261539   0.766616   0.117225
O                 0.478946   0.880833   0.356790
O                 0.418570   0.636362   0.155944
O                 0.344386   0.294987   0.142923
O                 0.258108   0.580259   0.291334
O                 0.404380   0.125587   0.414428
O                0.519115   0.072686   0.184350
O                0.618611   0.823745   0.383711
O                0.553770   0.604044   0.956113
O                0.729288   0.765828   0.369432
O                0.524159   0.876868   0.143518
O                0.576189   0.629038   0.336434
O                0.655620   0.295279   0.357155
O                0.746118   0.563317   0.223091
O                0.598294   0.108909   0.084986
O                0.984498   0.578636   0.317436
O                0.885609   0.335445   0.122325
O                0.945904   0.097818   0.543578
O                0.762923   0.267410   0.112940
O                0.979473   0.384496   0.358075
O                0.922988   0.134158   0.161951
O                0.848604   0.795588   0.149284
O                0.759339   0.080927   0.292444
O                0.903997   0.624616   0.413459
O                0.019594   0.572860   0.184611
O                0.123098   0.332022   0.390172
O                0.053744   0.093856   0.957102
O                0.228810   0.266452   0.370016
O                0.024843   0.376763   0.144013
O                0.081412   0.136313   0.344022
O                0.155287   0.795713   0.356905
O                0.244117   0.063838   0.225064
O                0.099394   0.608953   0.088142
O                0.520509   0.928853   0.684707
O                0.623745   0.174171   0.890809
O                0.553804   0.399397   0.455332
O                0.729438   0.234125   0.869375
O                0.525332   0.124170   0.644187
O                0.580660   0.368423   0.843160
O                0.655425   0.704281   0.856966
O                0.745232   0.436251   0.721510
O                0.598457   0.891220   0.584028
O                0.484988   0.924815   0.816573
O                0.386398   0.166908   0.622502
O                0.440242   0.387916   0.040007
O                0.263765   0.234850   0.609838
O                0.480064   0.118642   0.858564
O                0.423337   0.367857   0.662478
O                0.348226   0.706740   0.648820
O                0.253677   0.451907   0.778491
O                0.404434   0.874742   0.914591
O                0.017687   0.424201   0.684154
O                0.125560   0.670438   0.894436
O                0.054124   0.903584   0.457330
O                0.238312   0.735140   0.888264
O                0.021926   0.619455   0.643271
O                0.082244   0.863525   0.844829
O                0.154906   0.204777   0.856647
O                0.245655   0.953294   0.718806
O                0.096075   0.375027   0.585419
O                0.988552   0.424286   0.822698
O                0.886210   0.665068   0.623913
O                0.936789   0.887130   0.036813
O                0.761069   0.733012   0.609591
O                0.983143   0.618845   0.863854
O                0.923565   0.865957   0.663245
O                0.849051   0.205030   0.649776
O                0.758317   0.919124   0.789476
O                0.904437   0.375482   0.913876
K                 0.392971   0.553205   0.330993
K                 0.304482   0.136069   0.936587
K                 0.590513   0.505886   0.147931
K                 0.693142   0.134016   0.555789
K                 0.897416   0.054158   0.335322
K                 0.810388   0.610661   0.955111
K                 0.088271   0.005599   0.148748
K                 0.192674   0.638163   0.557370
K                 0.588173   0.494506   0.647257
K                0.693578   0.865740   0.056860
K                0.393575   0.446604   0.828898
K                0.308698   0.892874   0.453981
K                0.103425   0.957723   0.664839
K                0.189332   0.361788   0.053945
K                0.894768   0.944498   0.831328
K                0.814482   0.384830   0.458363
Ti                0.498965   0.853527   0.247458
Ti                1.001692   0.354685   0.251542
Ti                0.502359   0.147980   0.751905
Ti                1.002661   0.645063   0.753313
%endblock POSITIONS_FRAC

KPOINTS_MP_SPACING 0.05 1/ang

symmetry_generate
snap_to_symmetry

%BLOCK SPECIES_POT
NCP
%ENDBLOCK SPECIES_POT

