%block LATTICE_CART
  7.5827404     0.0102302    -0.0081208
  0.0154372    12.1254755     0.0321973
 -1.3457348     0.0447020    16.6420031
%endblock LATTICE_CART

%block POSITIONS_FRAC
H                 0.336848   0.936931   0.675926
H                 0.015334   0.748493   0.779644
H                 0.639374   0.562133   0.548901
H                 0.129371   0.464185   0.778937
H                 0.334046   0.470436   0.780978
H                 0.631751   0.032441   0.431698
H                 0.835955   0.037799   0.439449
H                 0.426414   0.024781   0.556819
H                 0.949601   0.751465   0.441302
H                0.336637   0.063102   0.176123
H                0.019986   0.253173   0.279183
H                0.632513   0.437276   0.047117
H                0.125302   0.537354   0.281085
H                0.329725   0.533953   0.287900
H                0.632524   0.968126   0.932217
H                0.836690   0.962630   0.939635
H                0.425857   0.974928   0.057823
H                -0.048529   0.247417   0.940728
H                0.835592   0.430530   0.674448
H                0.525903   0.247671   0.778503
H                0.415933   0.142433   0.756007
H                0.130293   0.062043   0.542841
H                0.631354   0.962758   0.780076
H                0.835465   0.967452   0.788028
H                0.132296   0.532912   0.438756
H                0.336391   0.538000   0.440659
H                0.558069   0.357663   0.463056
H                0.447425   0.252130   0.440481
H                0.838433   0.561930   0.175571
H                0.524500   0.751728   0.279270
H                0.415257   0.857457   0.255408
H                0.130802   0.934850   0.047251
H                0.630869   0.037683   0.279925
H                0.834992   0.032533   0.287997
H                0.136991   0.467342   0.931657
H                0.340987   0.465048   0.937712
H                0.558216   0.642918   0.963866
H                0.446559   0.747982   0.940835
H                0.131767   0.733999   0.558002
H                0.237226   0.627779   0.545294
H                0.439609   0.848470   0.472142
H                0.545058   0.744246   0.452131
H                0.434269   0.756697   0.772841
H                0.538078   0.651898   0.749463
H                0.734326   0.868009   0.676972
H                0.838016   0.761632   0.662187
H                0.631189   0.238730   0.555920
H                0.731977   0.130939   0.542191
H                0.921954   0.254423   0.770866
H                0.029046   0.150189   0.751043
H                -0.068998   0.474095   0.057970
H                0.239251   0.367947   0.042143
H                0.522902   0.350198   0.250402
H                0.417889   0.245810   0.271876
H                0.836812   0.238559   0.163617
H                0.733519   0.132071   0.177542
H                0.533900   0.528323   0.162512
H                0.536685   0.471609   0.662180
H                0.235163   0.632223   0.179646
H                0.343651   0.737080   0.165232
H                0.107069   0.484995   0.641031
H                0.037112   0.028092   0.162577
H                1.040230   0.974580   0.662060
H                0.061330   0.141552  -0.035925
H                0.061898   0.856600   0.463306
H                0.909195   0.358430   0.255501
H                0.733091   0.867760   0.042304
H                0.629231   0.761667   0.057523
H                1.029269   0.847732   0.250733
H                0.921221   0.744352   0.272089
H                0.544375   0.255866   0.952413
H                0.439195   0.151975   0.973122
H                0.050809   0.755017   0.952444
H                -0.055814   0.652090   0.973795
H                0.242469   0.358164   0.681336
H                0.345633   0.256589   0.658996
H                -0.056263   0.350838   0.475146
H                0.045283   0.246265   0.451259
H                0.135269   0.261765   0.056753
H                -0.088956   0.641440   0.754495
Li                0.215858   0.638563   0.694977
Li                0.488538   0.750402   0.608735
Li                0.768163   0.881266   0.531475
Li                0.200685   0.384098   0.187518
Li                0.484374   0.250594   0.112406
Li                0.767827   0.117299   0.033448
Li                0.706239   0.117090   0.687286
Li                0.981418   0.245806   0.608796
Li                0.267003   0.379025   0.529400
Li               0.705983   0.881445   0.188345
Li               0.986463   0.749348   0.112807
Li               0.269554   0.615357   0.035187
O                 0.692948   0.543049   0.243115
O                 0.978073   0.551465   0.354987
O                 0.901401   0.659894   0.356751
O                 0.757335   0.538835   0.470386
O                 0.747765   0.429756   0.437473
O                 0.710253   0.435580   0.280454
O                 0.478676   0.553078   0.364612
O                 0.558663   0.660396   0.363177
O                 0.535981   0.800320   0.493528
O                0.225054   0.687817   0.584043
O                0.400315   0.908746   0.630810
O                0.000935   0.692682   0.737430
O                0.573750   0.590455   0.593452
O                0.226175   0.477115   0.744003
O                0.467254   0.497684   0.613547
O                0.734755   0.024556   0.470985
O                0.497181   0.003568   0.606522
O                0.971500   0.807960   0.482574
O                0.439445   0.700591   0.731078
O                0.746153   0.809535   0.637334
O                0.702171   0.460478   0.744713
O                0.985717   0.447914   0.851438
O                0.906743   0.340496   0.855963
O                0.773496   0.458582   0.973425
O                0.757520   0.567046   0.937722
O                0.721126   0.567963   0.780507
O                0.488484   0.452059   0.862828
O                0.563093   0.342767   0.862483
O                0.535800   0.199627   0.993814
O                0.226381   0.309370   0.081941
O                0.399728   0.091432   0.130708
O                -0.000508   0.308919   0.236962
O                0.571548   0.410182   0.093172
O                0.225863   0.524794   0.248924
O                0.465327   0.503452   0.113063
O                0.735662   0.975643   0.971235
O                0.497661   0.997026   0.106643
O                0.971103   0.191130   0.982541
O                0.426574   0.301744   0.230068
O                0.746185   0.190966   0.137785
O                0.195883   0.040740   0.244837
O                0.480533   0.051805   0.352090
O                0.401958   0.159552   0.356058
O                0.270634   0.039302   0.474271
O                0.253736   0.932115   0.437555
O                0.214916   0.933082   0.281335
O                0.986270   0.051524   0.367266
O                0.063639   0.159506   0.363653
O                0.040232   0.300720   0.493819
O                0.721078   0.189911   0.581621
O                0.901259   0.399762   0.630869
O                0.506611   0.191190   0.737172
O                0.067020   0.090350   0.588119
O                0.732722   0.975158   0.748540
O                0.969171   0.996170   0.612581
O                0.239816   0.524573   0.475184
O                0.000205   0.492633   0.605357
O                0.467037   0.308255   0.481955
O                0.931948   0.198059   0.729907
O                0.253171   0.306790   0.637296
O                0.196393   0.960139   0.745031
O                0.480924   0.948542   0.852333
O                0.404886   0.840299   0.855996
O                0.269999   0.958992   0.974263
O                0.253184   0.066805   0.937717
O                0.215243   0.067409   0.781236
O                0.986656   0.948387   0.867079
O                0.064303   0.840316   0.863483
O                0.041241   0.699473   0.994328
O                0.721428   0.808951   0.082063
O                0.905030   0.590456   0.130969
O                0.506019   0.808314   0.237195
O                0.068223   0.908988   0.093287
O                0.732370   0.024587   0.248601
O                0.968550   0.004669   0.113079
O                0.240786   0.475445   0.970235
O                0.003414   0.496532   0.106462
O                0.466304   0.691070   0.982224
O                0.931917   0.800385   0.230271
O                0.251907   0.690232   0.139524
V                0.729501   0.546295   0.359888
V                0.737105   0.454478   0.859475
V                0.233275   0.045970   0.359416
V                0.233963   0.953815   0.859777
%endblock POSITIONS_FRAC
 
KPOINTS_MP_SPACING 0.05 1/ang

symmetry_generate
snap_to_symmetry

%BLOCK SPECIES_POT
NCP
%ENDBLOCK SPECIES_POT

