%block LATTICE_CART
7.5204000   0.0000000   0.0000000
0.0000000  12.2019997   0.0000000
0.0000000   0.0000000  16.7210007
%endblock LATTICE_CART

%block POSITIONS_ABS
  H  2.149550889  3.838874397  11.171982373
  H  5.370849123  8.363125243  5.549018266
  H  5.370849123  8.363125243  2.811482031
  H  2.149550889  3.838874397  13.909518607
  H  5.370849123  3.838874397  13.909518607
  H  2.149550889  8.363125243  2.811482031
  H  2.149550889  8.363125243  5.549018266
  H  5.370849123  3.838874397  11.171982373
  H  5.909750886  9.939874241  11.171982373
  H  1.610649127  2.262125399  5.549018266
  H  1.610649127  2.262125399  2.811482031
  H  5.909750886  9.939874241  13.909518607
  H  1.610649127  9.939874241  13.909518607
  H  5.909750886  2.262125399  2.811482031
  H  5.909750886  2.262125399  5.549018266
  H  1.610649127  9.939874241  11.171982373
  H  1.423032224  2.490650924  10.823434010
  H  6.097367788  9.711348716  5.897566628
  H  6.097367788  9.711348716  2.462933668
  H  1.423032224  2.490650924  14.258066970
  H  6.097367788  2.490650924  14.258066970
  H  1.423032224  9.711348716  2.462933668
  H  1.423032224  9.711348716  5.897566628
  H  6.097367788  2.490650924  10.823434010
  H  5.183232220  8.591650768  10.823434010
  H  2.337167792  3.610348872  5.897566628
  H  2.337167792  3.610348872  2.462933668
  H  5.183232220  8.591650768  14.258066970
  H  2.337167792  8.591650768  14.258066970
  H  5.183232220  3.610348872  2.462933668
  H  5.183232220  3.610348872  5.897566628
  H  2.337167792  8.591650768  10.823434010
  H  4.538865335  2.344813377  7.474114539
  H  2.981534678  9.857186263  9.246886099
  H  2.981534678  9.857186263  15.834614881
  H  4.538865335  2.344813377  0.886385757
  H  2.981534678  2.344813377  0.886385757
  H  4.538865335  9.857186263  15.834614881
  H  4.538865335  9.857186263  9.246886099
  H  2.981534678  2.344813377  7.474114539
  H  0.778665338  8.445813220  7.474114539
  H  6.741734674  3.756186419  9.246886099
  H  6.741734674  3.756186419  15.834614881
  H  0.778665338  8.445813220  0.886385757
  H  6.741734674  8.445813220  0.886385757
  H  0.778665338  3.756186419  15.834614881
  H  0.778665338  3.756186419  9.246886099
  H  6.741734674  8.445813220  7.474114539
  H  4.522066510  0.312760005  11.100508028
  H  2.998333502  11.889239634  5.620492611
  H  2.998333502  11.889239634  2.740007686
  H  4.522066510  0.312760005  13.980992952
  H  2.998333502  0.312760005  13.980992952
  H  4.522066510  11.889239634  2.740007686
  H  4.522066510  11.889239634  5.620492611
  H  2.998333502  0.312760005  11.100508028
  H  0.761866514  6.413759849  11.100508028
  H  6.758533499  5.788239791  5.620492611
  H  6.758533499  5.788239791  2.740007686
  H  0.761866514  6.413759849  13.980992952
  H  6.758533499  6.413759849  13.980992952
  H  0.761866514  5.788239791  2.740007686
  H  0.761866514  5.788239791  5.620492611
  H  6.758533499  6.413759849  11.100508028
  H  6.354112461  12.158412960  7.582626648
  H  1.166287552  0.043586680  9.138373990
  H  1.166287552  0.043586680  15.943126990
  H  6.354112461  12.158412960  0.777873649
  H  1.166287552  12.158412960  0.777873649
  H  6.354112461  0.043586680  15.943126990
  H  6.354112461  0.043586680  9.138373990
  H  1.166287552  12.158412960  7.582626648
  H  2.593912465  6.057413116  7.582626648
  H  4.926487548  6.144586523  9.138373990
  H  4.926487548  6.144586523  15.943126990
  H  2.593912465  6.057413116  0.777873649
  H  4.926487548  6.057413116  0.777873649
  H  2.593912465  6.144586523  15.943126990
  H  2.593912465  6.144586523  9.138373990
  H  4.926487548  6.057413116  7.582626648
 Li  3.760200006  2.379389831  9.895487762
 Li  3.760200006  9.822609809  6.825512876
 Li  3.760200006  9.822609809  1.534987420
 Li  3.760200006  2.379389831  15.186013218
 Li  0.000000010  8.480389675  9.895487762
 Li  0.000000010  3.721609965  6.825512876
 Li  0.000000010  3.721609965  1.534987420
 Li  0.000000010  8.480389675  15.186013218
 Li  3.760200006 -0.000000024  8.360500319
 Li  3.760200006 -0.000000024 -0.000000022
 Li  0.000000010  6.100999820  8.360500319
 Li  0.000000010  6.100999820 -0.000000022
  O  2.420816847  4.863717009  12.540750490
  O  5.099583166  7.338282630  4.180250148
  O  5.099583166  4.863717009  12.540750490
  O  2.420816847  7.338282630  4.180250148
  O  6.181016843  10.964716853  12.540750490
  O  1.339383170  1.237282787  4.180250148
  O  1.339383170  10.964716853  12.540750490
  O  6.181016843  1.237282787  4.180250148
  O  1.839489833  6.207157390  12.540750490
  O  5.680910179  5.994842250  4.180250148
  O  5.680910179  6.207157390  12.540750490
  O  1.839489833  5.994842250  4.180250148
  O  5.599689829  0.106157546  12.540750490
  O  1.920710183  12.095842094  4.180250148
  O  1.920710183  0.106157546  12.540750490
  O  5.599689829  12.095842094  4.180250148
  O  3.760200006  6.269387732  14.455304832
  O  3.760200006  5.932611908  2.265695807
  O  3.760200006  5.932611908  6.094804490
  O  3.760200006  6.269387732  10.626196148
  O  0.000000010  0.168387888  14.455304832
  O  0.000000010  12.033611752  2.265695807
  O  0.000000010  12.033611752  6.094804490
  O  0.000000010  0.168387888  10.626196148
  O  3.760200006  7.615268347  13.871741749
  O  3.760200006  4.586731293  2.849258890
  O  3.760200006  4.586731293  5.511241407
  O  3.760200006  7.615268347  11.209759231
  O  0.000000010  1.514268503  13.871741749
  O  0.000000010  10.687731137  2.849258890
  O  0.000000010  10.687731137  5.511241407
  O  0.000000010  1.514268503  11.209759231
  O  2.075630469  3.140794951  10.484066981
  O  5.444769544  9.061204689  6.236933658
  O  5.444769544  9.061204689  2.123566639
  O  2.075630469  3.140794951  14.597433999
  O  5.444769544  3.140794951  14.597433999
  O  2.075630469  9.061204689  2.123566639
  O  2.075630469  9.061204689  6.236933658
  O  5.444769544  3.140794951  10.484066981
  O  5.835830465  9.241794795  10.484066981
  O  1.684569547  2.960204845  6.236933658
  O  1.684569547  2.960204845  2.123566639
  O  5.835830465  9.241794795  14.597433999
  O  1.684569547  9.241794795  14.597433999
  O  5.835830465  2.960204845  2.123566639
  O  5.835830465  2.960204845  6.236933658
  O  1.684569547  9.241794795  10.484066981
  O  3.760200006  2.121927780  8.012703587
  O  3.760200006  10.080071860  8.708297051
  O  3.760200006  10.080071860  16.373203929
  O  3.760200006  2.121927780  0.347796709
  O  0.000000010  8.222927624  8.012703587
  O  0.000000010  3.979072016  8.708297051
  O  0.000000010  3.979072016  16.373203929
  O  0.000000010  8.222927624  0.347796709
  O  3.760200006  0.497841444  10.515837171
  O  3.760200006  11.704158196  6.205163468
  O  3.760200006  11.704158196  2.155336829
  O  3.760200006  0.497841444  14.565663809
  O  0.000000010  6.598841287  10.515837171
  O  0.000000010  5.603158352  6.205163468
  O  0.000000010  5.603158352  2.155336829
  O  0.000000010  6.598841287  14.565663809
  O  5.777923301 -0.000000024  8.360500319
  O  1.742476711 -0.000000024  8.360500319
  O  1.742476711 -0.000000024 -0.000000022
  O  5.777923301 -0.000000024 -0.000000022
  O  2.017723305  6.100999820  8.360500319
  O  5.502676708  6.100999820  8.360500319
  O  5.502676708  6.100999820 -0.000000022
  O  2.017723305  6.100999820 -0.000000022
  V  3.760200006  6.238882762  12.540750490
  V  3.760200006  5.963116878  4.180250148
  V  0.000000010  0.137882918  12.540750490
  V  0.000000010  12.064116722  4.180250148
%endblock POSITIONS_ABS

KPOINTS_MP_SPACING 0.05 1/ang

symmetry_generate
snap_to_symmetry

%BLOCK SPECIES_POT
NCP
%ENDBLOCK SPECIES_POT
